Problem:    generalized
Rows:       13
Columns:    27 (27 integer, 27 binary)
Non-zeros:  81
Status:     INTEGER OPTIMAL
Objective:  costoTotale = 264 (MINimum)

   No.   Row name        Activity     Lower bound   Upper bound
------ ------------    ------------- ------------- -------------
     1 VincoloTempo[1]
                                 324                         380 
     2 VincoloTempo[2]
                                 359                         360 
     3 VincoloTempo[3]
                                 348                         350 
     4 VincoloJob[1]
                                   1             1             = 
     5 VincoloJob[2]
                                   1             1             = 
     6 VincoloJob[3]
                                   1             1             = 
     7 VincoloJob[4]
                                   1             1             = 
     8 VincoloJob[5]
                                   1             1             = 
     9 VincoloJob[6]
                                   1             1             = 
    10 VincoloJob[7]
                                   1             1             = 
    11 VincoloJob[8]
                                   1             1             = 
    12 VincoloJob[9]
                                   1             1             = 
    13 costoTotale               264                             

   No. Column name       Activity     Lower bound   Upper bound
------ ------------    ------------- ------------- -------------
     1 x[1,1]       *              0             0             1 
     2 x[2,1]       *              1             0             1 
     3 x[3,1]       *              0             0             1 
     4 x[4,1]       *              0             0             1 
     5 x[5,1]       *              0             0             1 
     6 x[6,1]       *              0             0             1 
     7 x[7,1]       *              0             0             1 
     8 x[8,1]       *              1             0             1 
     9 x[9,1]       *              1             0             1 
    10 x[1,2]       *              1             0             1 
    11 x[2,2]       *              0             0             1 
    12 x[3,2]       *              0             0             1 
    13 x[4,2]       *              0             0             1 
    14 x[5,2]       *              0             0             1 
    15 x[6,2]       *              1             0             1 
    16 x[7,2]       *              1             0             1 
    17 x[8,2]       *              0             0             1 
    18 x[9,2]       *              0             0             1 
    19 x[1,3]       *              0             0             1 
    20 x[2,3]       *              0             0             1 
    21 x[3,3]       *              1             0             1 
    22 x[4,3]       *              1             0             1 
    23 x[5,3]       *              1             0             1 
    24 x[6,3]       *              0             0             1 
    25 x[7,3]       *              0             0             1 
    26 x[8,3]       *              0             0             1 
    27 x[9,3]       *              0             0             1 

Integer feasibility conditions:

KKT.PE: max.abs.err = 0.00e+00 on row 0
        max.rel.err = 0.00e+00 on row 0
        High quality

KKT.PB: max.abs.err = 0.00e+00 on row 0
        max.rel.err = 0.00e+00 on row 0
        High quality

End of output
